p cnf 747 2696
1 0
2 0
3 0
4 0
5 0
6 0
7 0
8 0
-9 0
10 0
11 0
12 0
13 0
14 0
15 0
16 0
17 0
18 0
19 0
20 0
21 0
22 0
23 0
24 0
25 0
26 0
27 0
28 0
29 0
30 0
31 0
32 0
33 0
34 0
35 0
36 0
37 0
38 0
39 0
40 0
41 0
42 0
43 0
44 45 46 47 0
-44 -45 0
-44 -46 0
-44 -47 0
-45 -46 0
-45 -47 0
-46 -47 0
-1 48 -49 0
1 -48 -49 0
-1 -48 49 0
1 48 49 0
-44 -49 0
1 -50 -51 0
-1 50 -51 0
51 -1 -50 0
51 1 50 0
-45 51 0
-48 52 0
-50 52 0
48 50 -52 0
1 -52 -53 0
-1 52 -53 0
-1 -52 53 0
1 52 53 0
-46 53 0
48 54 0
50 54 0
-50 -48 -54 0
-1 54 -55 0
1 -54 -55 0
55 -54 -1 0
1 54 55 0
-47 -55 0
50 -2 -56 0
2 -50 -56 0
-50 -2 56 0
2 50 56 0
-44 -56 0
2 -48 -57 0
48 -2 -57 0
57 -2 -48 0
57 2 48 0
-45 57 0
2 -52 -58 0
-2 52 -58 0
-2 -52 58 0
2 52 58 0
-46 58 0
50 59 0
48 59 0
-50 -48 -59 0
-2 59 -60 0
2 -59 -60 0
60 -59 -2 0
2 59 60 0
-47 -60 0
-3 61 -62 0
3 -61 -62 0
-3 -61 62 0
3 61 62 0
-44 -62 0
3 -63 -64 0
-3 63 -64 0
64 -3 -63 0
64 3 63 0
-45 64 0
-61 65 0
-63 65 0
-66 65 0
-67 65 0
-68 65 0
-69 65 0
-70 65 0
71 0
3 -65 -72 0
-3 65 -72 0
-3 -65 72 0
3 65 72 0
-46 72 0
61 73 0
63 73 0
66 73 0
67 73 0
68 73 0
69 73 0
70 73 0
-74 0
-3 73 -75 0
3 -73 -75 0
75 -73 -3 0
3 73 75 0
-47 -75 0
-76 63 -77 0
76 -63 -77 0
-76 -63 77 0
76 63 77 0
-44 -77 0
76 -66 -78 0
-76 66 -78 0
78 -76 -66 0
78 76 66 0
-45 78 0
-63 79 0
-66 79 0
-67 79 0
-68 79 0
-69 79 0
-70 79 0
63 66 67 68 69 70 -79 0
76 -79 -80 0
-76 79 -80 0
-76 -79 80 0
76 79 80 0
-46 80 0
63 81 0
66 81 0
67 81 0
68 81 0
69 81 0
70 81 0
-82 0
-76 81 -83 0
76 -81 -83 0
83 -81 -76 0
76 81 83 0
-47 -83 0
-84 66 -85 0
84 -66 -85 0
-84 -66 85 0
84 66 85 0
-44 -85 0
84 -67 -86 0
-84 67 -86 0
86 -84 -67 0
86 84 67 0
-45 86 0
-66 87 0
-67 87 0
-68 87 0
-69 87 0
-70 87 0
66 67 68 69 70 -87 0
84 -87 -88 0
-84 87 -88 0
-84 -87 88 0
84 87 88 0
-46 88 0
66 89 0
67 89 0
68 89 0
69 89 0
70 89 0
-90 0
-84 89 -91 0
84 -89 -91 0
91 -89 -84 0
84 89 91 0
-47 -91 0
-92 67 -93 0
92 -67 -93 0
-92 -67 93 0
92 67 93 0
-44 -93 0
92 -68 -94 0
-92 68 -94 0
94 -92 -68 0
94 92 68 0
-45 94 0
-67 95 0
-68 95 0
-69 95 0
-70 95 0
67 68 69 70 -95 0
92 -95 -96 0
-92 95 -96 0
-92 -95 96 0
92 95 96 0
-46 96 0
67 97 0
68 97 0
69 97 0
70 97 0
-98 0
-92 97 -99 0
92 -97 -99 0
99 -97 -92 0
92 97 99 0
-47 -99 0
-100 68 -101 0
100 -68 -101 0
-100 -68 101 0
100 68 101 0
-44 -101 0
100 -69 -102 0
-100 69 -102 0
102 -100 -69 0
102 100 69 0
-45 102 0
100 -95 -103 0
-100 95 -103 0
-100 -95 103 0
100 95 103 0
-46 103 0
-100 97 -104 0
100 -97 -104 0
104 -97 -100 0
100 97 104 0
-47 -104 0
-105 69 -106 0
105 -69 -106 0
-105 -69 106 0
105 69 106 0
-44 -106 0
105 -70 -107 0
-105 70 -107 0
107 -105 -70 0
107 105 70 0
-45 107 0
105 -95 -108 0
-105 95 -108 0
-105 -95 108 0
105 95 108 0
-46 108 0
-105 97 -109 0
105 -97 -109 0
109 -97 -105 0
105 97 109 0
-47 -109 0
-4 70 -110 0
4 -70 -110 0
-4 -70 110 0
4 70 110 0
-44 -110 0
4 -67 -111 0
-4 67 -111 0
111 -4 -67 0
111 4 67 0
-45 111 0
4 -95 -112 0
-4 95 -112 0
-4 -95 112 0
4 95 112 0
-46 112 0
-4 97 -113 0
4 -97 -113 0
113 -97 -4 0
4 97 113 0
-47 -113 0
-5 114 -115 0
5 -114 -115 0
-5 -114 115 0
5 114 115 0
-44 -115 0
5 -116 -117 0
-5 116 -117 0
117 -5 -116 0
117 5 116 0
-45 117 0
-114 118 0
-116 118 0
-119 118 0
-120 118 0
-121 118 0
-122 118 0
-123 118 0
124 0
5 -118 -125 0
-5 118 -125 0
-5 -118 125 0
5 118 125 0
-46 125 0
114 126 0
116 126 0
119 126 0
120 126 0
121 126 0
122 126 0
123 126 0
-127 0
-5 126 -128 0
5 -126 -128 0
128 -126 -5 0
5 126 128 0
-47 -128 0
-129 116 -130 0
129 -116 -130 0
-129 -116 130 0
129 116 130 0
-44 -130 0
129 -119 -131 0
-129 119 -131 0
131 -129 -119 0
131 129 119 0
-45 131 0
-116 132 0
-119 132 0
-120 132 0
-121 132 0
-122 132 0
-123 132 0
133 0
129 -132 -134 0
-129 132 -134 0
-129 -132 134 0
129 132 134 0
-46 134 0
116 135 0
119 135 0
120 135 0
121 135 0
122 135 0
123 135 0
-136 0
-129 135 -137 0
129 -135 -137 0
137 -135 -129 0
129 135 137 0
-47 -137 0
-6 119 -138 0
6 -119 -138 0
-6 -119 138 0
6 119 138 0
-44 -138 0
6 -120 -139 0
-6 120 -139 0
139 -6 -120 0
139 6 120 0
-45 139 0
-119 140 0
-120 140 0
-121 140 0
-122 140 0
-123 140 0
119 120 121 122 123 -140 0
6 -140 -141 0
-6 140 -141 0
-6 -140 141 0
6 140 141 0
-46 141 0
119 142 0
120 142 0
121 142 0
122 142 0
123 142 0
-143 0
-6 142 -144 0
6 -142 -144 0
144 -142 -6 0
6 142 144 0
-47 -144 0
-145 120 -146 0
145 -120 -146 0
-145 -120 146 0
145 120 146 0
-44 -146 0
145 -121 -147 0
-145 121 -147 0
147 -145 -121 0
147 145 121 0
-45 147 0
-120 148 0
-121 148 0
-122 148 0
-123 148 0
120 121 122 123 -148 0
145 -148 -149 0
-145 148 -149 0
-145 -148 149 0
145 148 149 0
-46 149 0
120 150 0
121 150 0
122 150 0
123 150 0
-151 0
-145 150 -152 0
145 -150 -152 0
152 -150 -145 0
145 150 152 0
-47 -152 0
-153 121 -154 0
153 -121 -154 0
-153 -121 154 0
153 121 154 0
-44 -154 0
153 -122 -155 0
-153 122 -155 0
155 -153 -122 0
155 153 122 0
-45 155 0
153 -148 -156 0
-153 148 -156 0
-153 -148 156 0
153 148 156 0
-46 156 0
-153 150 -157 0
153 -150 -157 0
157 -150 -153 0
153 150 157 0
-47 -157 0
-158 122 -159 0
158 -122 -159 0
-158 -122 159 0
158 122 159 0
-44 -159 0
158 -123 -160 0
-158 123 -160 0
160 -158 -123 0
160 158 123 0
-45 160 0
158 -148 -161 0
-158 148 -161 0
-158 -148 161 0
158 148 161 0
-46 161 0
-158 150 -162 0
158 -150 -162 0
162 -150 -158 0
158 150 162 0
-47 -162 0
-163 123 -164 0
163 -123 -164 0
-163 -123 164 0
163 123 164 0
-44 -164 0
163 -120 -165 0
-163 120 -165 0
165 -163 -120 0
165 163 120 0
-45 165 0
163 -148 -166 0
-163 148 -166 0
-163 -148 166 0
163 148 166 0
-46 166 0
-163 150 -167 0
163 -150 -167 0
167 -150 -163 0
163 150 167 0
-47 -167 0
-7 168 -169 0
7 -168 -169 0
-7 -168 169 0
7 168 169 0
-44 -169 0
7 -170 -171 0
-7 170 -171 0
171 -7 -170 0
171 7 170 0
-45 171 0
-168 172 0
-170 172 0
-173 172 0
168 170 173 -172 0
7 -172 -174 0
-7 172 -174 0
-7 -172 174 0
7 172 174 0
-46 174 0
168 175 0
170 175 0
173 175 0
-168 -170 -173 -175 0
-7 175 -176 0
7 -175 -176 0
176 -175 -7 0
7 175 176 0
-47 -176 0
-8 170 -177 0
8 -170 -177 0
-8 -170 177 0
8 170 177 0
-44 -177 0
8 -173 -178 0
-8 173 -178 0
178 -8 -173 0
178 8 173 0
-45 178 0
-170 179 0
-173 179 0
170 173 -179 0
8 -179 -180 0
-8 179 -180 0
-8 -179 180 0
8 179 180 0
-46 180 0
170 181 0
173 181 0
-170 -173 -181 0
-8 181 -182 0
8 -181 -182 0
182 -181 -8 0
8 181 182 0
-47 -182 0
-9 173 -183 0
9 -173 -183 0
-9 -173 183 0
9 173 183 0
-44 -183 0
9 -173 -184 0
-9 173 -184 0
184 -9 -173 0
184 9 173 0
-45 184 0
-46 184 0
-47 184 0
-10 185 -186 0
10 -185 -186 0
-10 -185 186 0
10 185 186 0
-44 -186 0
10 -187 -188 0
-10 187 -188 0
188 -10 -187 0
188 10 187 0
-45 188 0
-185 189 0
-187 189 0
-190 189 0
-191 189 0
-192 189 0
185 187 190 191 192 -189 0
10 -189 -193 0
-10 189 -193 0
-10 -189 193 0
10 189 193 0
-46 193 0
185 194 0
187 194 0
190 194 0
191 194 0
192 194 0
-195 0
-10 194 -196 0
10 -194 -196 0
196 -194 -10 0
10 194 196 0
-47 -196 0
-197 187 -198 0
197 -187 -198 0
-197 -187 198 0
197 187 198 0
-44 -198 0
197 -190 -199 0
-197 190 -199 0
199 -197 -190 0
199 197 190 0
-45 199 0
-187 200 0
-190 200 0
-191 200 0
-192 200 0
187 190 191 192 -200 0
197 -200 -201 0
-197 200 -201 0
-197 -200 201 0
197 200 201 0
-46 201 0
187 202 0
190 202 0
191 202 0
192 202 0
-203 0
-197 202 -204 0
197 -202 -204 0
204 -202 -197 0
197 202 204 0
-47 -204 0
-205 190 -206 0
205 -190 -206 0
-205 -190 206 0
205 190 206 0
-44 -206 0
205 -191 -207 0
-205 191 -207 0
207 -205 -191 0
207 205 191 0
-45 207 0
-190 208 0
-191 208 0
-192 208 0
190 191 192 -208 0
205 -208 -209 0
-205 208 -209 0
-205 -208 209 0
205 208 209 0
-46 209 0
190 210 0
191 210 0
192 210 0
-190 -191 -192 -210 0
-205 210 -211 0
205 -210 -211 0
211 -210 -205 0
205 210 211 0
-47 -211 0
-11 191 -212 0
11 -191 -212 0
-11 -191 212 0
11 191 212 0
-44 -212 0
11 -192 -213 0
-11 192 -213 0
213 -11 -192 0
213 11 192 0
-45 213 0
11 -208 -214 0
-11 208 -214 0
-11 -208 214 0
11 208 214 0
-46 214 0
-11 210 -215 0
11 -210 -215 0
215 -210 -11 0
11 210 215 0
-47 -215 0
-216 192 -217 0
216 -192 -217 0
-216 -192 217 0
216 192 217 0
-44 -217 0
216 -190 -218 0
-216 190 -218 0
218 -216 -190 0
218 216 190 0
-45 218 0
216 -208 -219 0
-216 208 -219 0
-216 -208 219 0
216 208 219 0
-46 219 0
-216 210 -220 0
216 -210 -220 0
220 -210 -216 0
216 210 220 0
-47 -220 0
-12 221 -222 0
12 -221 -222 0
-12 -221 222 0
12 221 222 0
-44 -222 0
12 -223 -224 0
-12 223 -224 0
224 -12 -223 0
224 12 223 0
-45 224 0
-48 225 0
-50 225 0
-221 225 0
-223 225 0
-226 225 0
-227 225 0
48 50 221 223 226 227 -225 0
12 -225 -228 0
-12 225 -228 0
-12 -225 228 0
12 225 228 0
-46 228 0
50 229 0
48 229 0
221 229 0
223 229 0
226 229 0
227 229 0
-230 0
-12 229 -231 0
12 -229 -231 0
231 -229 -12 0
12 229 231 0
-47 -231 0
-232 223 -233 0
232 -223 -233 0
-232 -223 233 0
232 223 233 0
-44 -233 0
232 -226 -234 0
-232 226 -234 0
234 -232 -226 0
234 232 226 0
-45 234 0
-48 235 0
-50 235 0
-223 235 0
-226 235 0
-227 235 0
48 50 223 226 227 -235 0
232 -235 -236 0
-232 235 -236 0
-232 -235 236 0
232 235 236 0
-46 236 0
50 237 0
48 237 0
223 237 0
226 237 0
227 237 0
-238 0
-232 237 -239 0
232 -237 -239 0
239 -237 -232 0
232 237 239 0
-47 -239 0
-13 226 -240 0
13 -226 -240 0
-13 -226 240 0
13 226 240 0
-44 -240 0
13 -227 -241 0
-13 227 -241 0
241 -13 -227 0
241 13 227 0
-45 241 0
-48 242 0
-50 242 0
-226 242 0
-227 242 0
48 50 226 227 -242 0
13 -242 -243 0
-13 242 -243 0
-13 -242 243 0
13 242 243 0
-46 243 0
50 244 0
48 244 0
226 244 0
227 244 0
-245 0
-13 244 -246 0
13 -244 -246 0
246 -244 -13 0
13 244 246 0
-47 -246 0
-14 227 -247 0
14 -227 -247 0
-14 -227 247 0
14 227 247 0
-44 -247 0
14 -48 -248 0
48 -14 -248 0
248 -14 -48 0
248 14 48 0
-45 248 0
-48 249 0
-50 249 0
-227 249 0
48 50 227 -249 0
14 -249 -250 0
-14 249 -250 0
-14 -249 250 0
14 249 250 0
-46 250 0
50 251 0
48 251 0
227 251 0
-50 -48 -227 -251 0
-14 251 -252 0
14 -251 -252 0
252 -251 -14 0
14 251 252 0
-47 -252 0
-15 253 -254 0
15 -253 -254 0
-15 -253 254 0
15 253 254 0
-44 -254 0
15 -255 -256 0
-15 255 -256 0
256 -15 -255 0
256 15 255 0
-45 256 0
-190 257 0
-191 257 0
-192 257 0
-253 257 0
-255 257 0
-258 257 0
-259 257 0
260 0
15 -257 -261 0
-15 257 -261 0
-15 -257 261 0
15 257 261 0
-46 261 0
190 262 0
191 262 0
192 262 0
253 262 0
255 262 0
258 262 0
259 262 0
-263 0
-15 262 -264 0
15 -262 -264 0
264 -262 -15 0
15 262 264 0
-47 -264 0
-265 255 -266 0
265 -255 -266 0
-265 -255 266 0
265 255 266 0
-44 -266 0
265 -258 -267 0
-265 258 -267 0
267 -265 -258 0
267 265 258 0
-45 267 0
-190 268 0
-191 268 0
-192 268 0
-255 268 0
-258 268 0
-259 268 0
269 0
265 -268 -270 0
-265 268 -270 0
-265 -268 270 0
265 268 270 0
-46 270 0
190 271 0
191 271 0
192 271 0
255 271 0
258 271 0
259 271 0
-272 0
-265 271 -273 0
265 -271 -273 0
273 -271 -265 0
265 271 273 0
-47 -273 0
-274 258 -275 0
274 -258 -275 0
-274 -258 275 0
274 258 275 0
-44 -275 0
274 -259 -276 0
-274 259 -276 0
276 -274 -259 0
276 274 259 0
-45 276 0
-190 277 0
-191 277 0
-192 277 0
-258 277 0
-259 277 0
190 191 192 258 259 -277 0
274 -277 -278 0
-274 277 -278 0
-274 -277 278 0
274 277 278 0
-46 278 0
190 279 0
191 279 0
192 279 0
258 279 0
259 279 0
-280 0
-274 279 -281 0
274 -279 -281 0
281 -279 -274 0
274 279 281 0
-47 -281 0
-282 259 -283 0
282 -259 -283 0
-282 -259 283 0
282 259 283 0
-44 -283 0
282 -192 -284 0
-282 192 -284 0
284 -282 -192 0
284 282 192 0
-45 284 0
-190 285 0
-191 285 0
-192 285 0
-259 285 0
190 191 192 259 -285 0
282 -285 -286 0
-282 285 -286 0
-282 -285 286 0
282 285 286 0
-46 286 0
190 287 0
191 287 0
192 287 0
259 287 0
-288 0
-282 287 -289 0
282 -287 -289 0
289 -287 -282 0
282 287 289 0
-47 -289 0
-16 290 -291 0
16 -290 -291 0
-16 -290 291 0
16 290 291 0
-44 -291 0
16 -292 -293 0
-16 292 -293 0
293 -16 -292 0
293 16 292 0
-45 293 0
-48 294 0
-50 294 0
-290 294 0
-292 294 0
-295 294 0
48 50 290 292 295 -294 0
16 -294 -296 0
-16 294 -296 0
-16 -294 296 0
16 294 296 0
-46 296 0
50 297 0
48 297 0
290 297 0
292 297 0
295 297 0
-298 0
-16 297 -299 0
16 -297 -299 0
299 -297 -16 0
16 297 299 0
-47 -299 0
-17 292 -300 0
17 -292 -300 0
-17 -292 300 0
17 292 300 0
-44 -300 0
17 -295 -301 0
-17 295 -301 0
301 -17 -295 0
301 17 295 0
-45 301 0
-48 302 0
-50 302 0
-292 302 0
-295 302 0
48 50 292 295 -302 0
17 -302 -303 0
-17 302 -303 0
-17 -302 303 0
17 302 303 0
-46 303 0
50 304 0
48 304 0
292 304 0
295 304 0
-305 0
-17 304 -306 0
17 -304 -306 0
306 -304 -17 0
17 304 306 0
-47 -306 0
-307 295 -308 0
307 -295 -308 0
-307 -295 308 0
307 295 308 0
-44 -308 0
307 -50 -309 0
50 -307 -309 0
309 -307 -50 0
309 307 50 0
-45 309 0
-48 310 0
-50 310 0
-295 310 0
48 50 295 -310 0
307 -310 -311 0
-307 310 -311 0
-307 -310 311 0
307 310 311 0
-46 311 0
50 312 0
48 312 0
295 312 0
-50 -48 -295 -312 0
-307 312 -313 0
307 -312 -313 0
313 -312 -307 0
307 312 313 0
-47 -313 0
-18 314 -315 0
18 -314 -315 0
-18 -314 315 0
18 314 315 0
-44 -315 0
18 -316 -317 0
-18 316 -317 0
317 -18 -316 0
317 18 316 0
-45 317 0
-314 318 0
-316 318 0
-319 318 0
314 316 319 -318 0
18 -318 -320 0
-18 318 -320 0
-18 -318 320 0
18 318 320 0
-46 320 0
314 321 0
316 321 0
319 321 0
-314 -316 -319 -321 0
-18 321 -322 0
18 -321 -322 0
322 -321 -18 0
18 321 322 0
-47 -322 0
-19 316 -323 0
19 -316 -323 0
-19 -316 323 0
19 316 323 0
-44 -323 0
19 -319 -324 0
-19 319 -324 0
324 -19 -319 0
324 19 319 0
-45 324 0
-316 325 0
-319 325 0
316 319 -325 0
19 -325 -326 0
-19 325 -326 0
-19 -325 326 0
19 325 326 0
-46 326 0
316 327 0
319 327 0
-316 -319 -327 0
-19 327 -328 0
19 -327 -328 0
328 -327 -19 0
19 327 328 0
-47 -328 0
-329 319 -330 0
329 -319 -330 0
-329 -319 330 0
329 319 330 0
-44 -330 0
329 -319 -331 0
-329 319 -331 0
331 -329 -319 0
331 329 319 0
-45 331 0
-46 331 0
-47 331 0
-20 332 -333 0
20 -332 -333 0
-20 -332 333 0
20 332 333 0
-44 -333 0
20 -334 -335 0
-20 334 -335 0
335 -20 -334 0
335 20 334 0
-45 335 0
-120 336 0
-121 336 0
-122 336 0
-123 336 0
-332 336 0
-334 336 0
337 0
20 -336 -338 0
-20 336 -338 0
-20 -336 338 0
20 336 338 0
-46 338 0
120 339 0
121 339 0
122 339 0
123 339 0
332 339 0
334 339 0
-340 0
-20 339 -341 0
20 -339 -341 0
341 -339 -20 0
20 339 341 0
-47 -341 0
-342 334 -343 0
342 -334 -343 0
-342 -334 343 0
342 334 343 0
-44 -343 0
342 -123 -344 0
-342 123 -344 0
344 -342 -123 0
344 342 123 0
-45 344 0
-120 345 0
-121 345 0
-122 345 0
-123 345 0
-334 345 0
120 121 122 123 334 -345 0
342 -345 -346 0
-342 345 -346 0
-342 -345 346 0
342 345 346 0
-46 346 0
120 347 0
121 347 0
122 347 0
123 347 0
334 347 0
-348 0
-342 347 -349 0
342 -347 -349 0
349 -347 -342 0
342 347 349 0
-47 -349 0
-21 350 -351 0
21 -350 -351 0
-21 -350 351 0
21 350 351 0
-44 -351 0
21 -352 -353 0
-21 352 -353 0
353 -21 -352 0
353 21 352 0
-45 353 0
-120 354 0
-121 354 0
-122 354 0
-123 354 0
-334 354 0
-350 354 0
-352 354 0
355 0
21 -354 -356 0
-21 354 -356 0
-21 -354 356 0
21 354 356 0
-46 356 0
120 357 0
121 357 0
122 357 0
123 357 0
334 357 0
350 357 0
352 357 0
-358 0
-21 357 -359 0
21 -357 -359 0
359 -357 -21 0
21 357 359 0
-47 -359 0
-22 352 -360 0
22 -352 -360 0
-22 -352 360 0
22 352 360 0
-44 -360 0
22 -334 -361 0
-22 334 -361 0
361 -22 -334 0
361 22 334 0
-45 361 0
-120 362 0
-121 362 0
-122 362 0
-123 362 0
-334 362 0
-352 362 0
363 0
22 -362 -364 0
-22 362 -364 0
-22 -362 364 0
22 362 364 0
-46 364 0
120 365 0
121 365 0
122 365 0
123 365 0
334 365 0
352 365 0
-366 0
-22 365 -367 0
22 -365 -367 0
367 -365 -22 0
22 365 367 0
-47 -367 0
-23 368 -369 0
23 -368 -369 0
-23 -368 369 0
23 368 369 0
-44 -369 0
23 -370 -371 0
-23 370 -371 0
371 -23 -370 0
371 23 370 0
-45 371 0
-368 372 0
-370 372 0
-373 372 0
-374 372 0
-375 372 0
-376 372 0
-377 372 0
-378 372 0
379 0
23 -372 -380 0
-23 372 -380 0
-23 -372 380 0
23 372 380 0
-46 380 0
368 381 0
370 381 0
373 381 0
374 381 0
375 381 0
376 381 0
377 381 0
378 381 0
-382 0
-23 381 -383 0
23 -381 -383 0
383 -381 -23 0
23 381 383 0
-47 -383 0
-384 370 -385 0
384 -370 -385 0
-384 -370 385 0
384 370 385 0
-44 -385 0
384 -373 -386 0
-384 373 -386 0
386 -384 -373 0
386 384 373 0
-45 386 0
-370 387 0
-373 387 0
-374 387 0
-375 387 0
-376 387 0
-377 387 0
-378 387 0
388 0
384 -387 -389 0
-384 387 -389 0
-384 -387 389 0
384 387 389 0
-46 389 0
370 390 0
373 390 0
374 390 0
375 390 0
376 390 0
377 390 0
378 390 0
-391 0
-384 390 -392 0
384 -390 -392 0
392 -390 -384 0
384 390 392 0
-47 -392 0
-393 373 -394 0
393 -373 -394 0
-393 -373 394 0
393 373 394 0
-44 -394 0
393 -374 -395 0
-393 374 -395 0
395 -393 -374 0
395 393 374 0
-45 395 0
-373 396 0
-374 396 0
-375 396 0
-376 396 0
-377 396 0
-378 396 0
397 0
393 -396 -398 0
-393 396 -398 0
-393 -396 398 0
393 396 398 0
-46 398 0
373 399 0
374 399 0
375 399 0
376 399 0
377 399 0
378 399 0
-400 0
-393 399 -401 0
393 -399 -401 0
401 -399 -393 0
393 399 401 0
-47 -401 0
-402 374 -403 0
402 -374 -403 0
-402 -374 403 0
402 374 403 0
-44 -403 0
402 -375 -404 0
-402 375 -404 0
404 -402 -375 0
404 402 375 0
-45 404 0
-374 405 0
-375 405 0
-376 405 0
-377 405 0
-378 405 0
374 375 376 377 378 -405 0
402 -405 -406 0
-402 405 -406 0
-402 -405 406 0
402 405 406 0
-46 406 0
374 407 0
375 407 0
376 407 0
377 407 0
378 407 0
-408 0
-402 407 -409 0
402 -407 -409 0
409 -407 -402 0
402 407 409 0
-47 -409 0
-410 375 -411 0
410 -375 -411 0
-410 -375 411 0
410 375 411 0
-44 -411 0
410 -376 -412 0
-410 376 -412 0
412 -410 -376 0
412 410 376 0
-45 412 0
-375 413 0
-376 413 0
-377 413 0
-378 413 0
375 376 377 378 -413 0
410 -413 -414 0
-410 413 -414 0
-410 -413 414 0
410 413 414 0
-46 414 0
375 415 0
376 415 0
377 415 0
378 415 0
-416 0
-410 415 -417 0
410 -415 -417 0
417 -415 -410 0
410 415 417 0
-47 -417 0
-418 376 -419 0
418 -376 -419 0
-418 -376 419 0
418 376 419 0
-44 -419 0
418 -377 -420 0
-418 377 -420 0
420 -418 -377 0
420 418 377 0
-45 420 0
418 -413 -421 0
-418 413 -421 0
-418 -413 421 0
418 413 421 0
-46 421 0
-418 415 -422 0
418 -415 -422 0
422 -415 -418 0
418 415 422 0
-47 -422 0
-423 377 -424 0
423 -377 -424 0
-423 -377 424 0
423 377 424 0
-44 -424 0
423 -378 -425 0
-423 378 -425 0
425 -423 -378 0
425 423 378 0
-45 425 0
423 -413 -426 0
-423 413 -426 0
-423 -413 426 0
423 413 426 0
-46 426 0
-423 415 -427 0
423 -415 -427 0
427 -415 -423 0
423 415 427 0
-47 -427 0
-428 378 -429 0
428 -378 -429 0
-428 -378 429 0
428 378 429 0
-44 -429 0
428 -375 -430 0
-428 375 -430 0
430 -428 -375 0
430 428 375 0
-45 430 0
428 -413 -431 0
-428 413 -431 0
-428 -413 431 0
428 413 431 0
-46 431 0
-428 415 -432 0
428 -415 -432 0
432 -415 -428 0
428 415 432 0
-47 -432 0
-24 433 -434 0
24 -433 -434 0
-24 -433 434 0
24 433 434 0
-44 -434 0
24 -435 -436 0
-24 435 -436 0
436 -24 -435 0
436 24 435 0
-45 436 0
-433 437 0
-435 437 0
-438 437 0
-439 437 0
-440 437 0
-441 437 0
442 0
24 -437 -443 0
-24 437 -443 0
-24 -437 443 0
24 437 443 0
-46 443 0
433 444 0
435 444 0
438 444 0
439 444 0
440 444 0
441 444 0
-445 0
-24 444 -446 0
24 -444 -446 0
446 -444 -24 0
24 444 446 0
-47 -446 0
-25 435 -447 0
25 -435 -447 0
-25 -435 447 0
25 435 447 0
-44 -447 0
25 -438 -448 0
-25 438 -448 0
448 -25 -438 0
448 25 438 0
-45 448 0
-435 449 0
-438 449 0
-439 449 0
-440 449 0
-441 449 0
435 438 439 440 441 -449 0
25 -449 -450 0
-25 449 -450 0
-25 -449 450 0
25 449 450 0
-46 450 0
435 451 0
438 451 0
439 451 0
440 451 0
441 451 0
-452 0
-25 451 -453 0
25 -451 -453 0
453 -451 -25 0
25 451 453 0
-47 -453 0
-26 438 -454 0
26 -438 -454 0
-26 -438 454 0
26 438 454 0
-44 -454 0
26 -439 -455 0
-26 439 -455 0
455 -26 -439 0
455 26 439 0
-45 455 0
26 -449 -456 0
-26 449 -456 0
-26 -449 456 0
26 449 456 0
-46 456 0
-26 451 -457 0
26 -451 -457 0
457 -451 -26 0
26 451 457 0
-47 -457 0
-458 439 -459 0
458 -439 -459 0
-458 -439 459 0
458 439 459 0
-44 -459 0
458 -440 -460 0
-458 440 -460 0
460 -458 -440 0
460 458 440 0
-45 460 0
458 -449 -461 0
-458 449 -461 0
-458 -449 461 0
458 449 461 0
-46 461 0
-458 451 -462 0
458 -451 -462 0
462 -451 -458 0
458 451 462 0
-47 -462 0
-463 440 -464 0
463 -440 -464 0
-463 -440 464 0
463 440 464 0
-44 -464 0
463 -441 -465 0
-463 441 -465 0
465 -463 -441 0
465 463 441 0
-45 465 0
463 -449 -466 0
-463 449 -466 0
-463 -449 466 0
463 449 466 0
-46 466 0
-463 451 -467 0
463 -451 -467 0
467 -451 -463 0
463 451 467 0
-47 -467 0
-468 441 -469 0
468 -441 -469 0
-468 -441 469 0
468 441 469 0
-44 -469 0
468 -435 -470 0
-468 435 -470 0
470 -468 -435 0
470 468 435 0
-45 470 0
468 -449 -471 0
-468 449 -471 0
-468 -449 471 0
468 449 471 0
-46 471 0
-468 451 -472 0
468 -451 -472 0
472 -451 -468 0
468 451 472 0
-47 -472 0
-27 473 -474 0
27 -473 -474 0
-27 -473 474 0
27 473 474 0
-44 -474 0
27 -475 -476 0
-27 475 -476 0
476 -27 -475 0
476 27 475 0
-45 476 0
-66 477 0
-67 477 0
-68 477 0
-69 477 0
-70 477 0
-473 477 0
-475 477 0
478 0
27 -477 -479 0
-27 477 -479 0
-27 -477 479 0
27 477 479 0
-46 479 0
66 480 0
67 480 0
68 480 0
69 480 0
70 480 0
473 480 0
475 480 0
-481 0
-27 480 -482 0
27 -480 -482 0
482 -480 -27 0
27 480 482 0
-47 -482 0
-483 475 -484 0
483 -475 -484 0
-483 -475 484 0
483 475 484 0
-44 -484 0
483 -66 -485 0
-483 66 -485 0
485 -483 -66 0
485 483 66 0
-45 485 0
-66 486 0
-67 486 0
-68 486 0
-69 486 0
-70 486 0
-475 486 0
66 67 68 69 70 475 -486 0
483 -486 -487 0
-483 486 -487 0
-483 -486 487 0
483 486 487 0
-46 487 0
66 488 0
67 488 0
68 488 0
69 488 0
70 488 0
475 488 0
-489 0
-483 488 -490 0
483 -488 -490 0
490 -488 -483 0
483 488 490 0
-47 -490 0
-28 491 -492 0
28 -491 -492 0
-28 -491 492 0
28 491 492 0
-44 -492 0
28 -493 -494 0
-28 493 -494 0
494 -28 -493 0
494 28 493 0
-45 494 0
-170 495 0
-173 495 0
-491 495 0
-493 495 0
-496 495 0
170 173 491 493 496 -495 0
28 -495 -497 0
-28 495 -497 0
-28 -495 497 0
28 495 497 0
-46 497 0
170 498 0
173 498 0
491 498 0
493 498 0
496 498 0
-499 0
-28 498 -500 0
28 -498 -500 0
500 -498 -28 0
28 498 500 0
-47 -500 0
-501 493 -502 0
501 -493 -502 0
-501 -493 502 0
501 493 502 0
-44 -502 0
501 -496 -503 0
-501 496 -503 0
503 -501 -496 0
503 501 496 0
-45 503 0
-170 504 0
-173 504 0
-493 504 0
-496 504 0
170 173 493 496 -504 0
501 -504 -505 0
-501 504 -505 0
-501 -504 505 0
501 504 505 0
-46 505 0
170 506 0
173 506 0
493 506 0
496 506 0
-507 0
-501 506 -508 0
501 -506 -508 0
508 -506 -501 0
501 506 508 0
-47 -508 0
-29 496 -509 0
29 -496 -509 0
-29 -496 509 0
29 496 509 0
-44 -509 0
29 -170 -510 0
-29 170 -510 0
510 -29 -170 0
510 29 170 0
-45 510 0
-170 511 0
-173 511 0
-496 511 0
170 173 496 -511 0
29 -511 -512 0
-29 511 -512 0
-29 -511 512 0
29 511 512 0
-46 512 0
170 513 0
173 513 0
496 513 0
-170 -173 -496 -513 0
-29 513 -514 0
29 -513 -514 0
514 -513 -29 0
29 513 514 0
-47 -514 0
-30 515 -516 0
30 -515 -516 0
-30 -515 516 0
30 515 516 0
-44 -516 0
30 -517 -518 0
-30 517 -518 0
518 -30 -517 0
518 30 517 0
-45 518 0
-435 519 0
-438 519 0
-439 519 0
-440 519 0
-441 519 0
-515 519 0
-517 519 0
520 0
30 -519 -521 0
-30 519 -521 0
-30 -519 521 0
30 519 521 0
-46 521 0
435 522 0
438 522 0
439 522 0
440 522 0
441 522 0
515 522 0
517 522 0
-523 0
-30 522 -524 0
30 -522 -524 0
524 -522 -30 0
30 522 524 0
-47 -524 0
-525 517 -526 0
525 -517 -526 0
-525 -517 526 0
525 517 526 0
-44 -526 0
525 -438 -527 0
-525 438 -527 0
527 -525 -438 0
527 525 438 0
-45 527 0
-435 528 0
-438 528 0
-439 528 0
-440 528 0
-441 528 0
-517 528 0
529 0
525 -528 -530 0
-525 528 -530 0
-525 -528 530 0
525 528 530 0
-46 530 0
435 531 0
438 531 0
439 531 0
440 531 0
441 531 0
517 531 0
-532 0
-525 531 -533 0
525 -531 -533 0
533 -531 -525 0
525 531 533 0
-47 -533 0
-31 534 -535 0
31 -534 -535 0
-31 -534 535 0
31 534 535 0
-44 -535 0
31 -295 -536 0
-31 295 -536 0
536 -31 -295 0
536 31 295 0
-45 536 0
-48 537 0
-50 537 0
-295 537 0
-534 537 0
48 50 295 534 -537 0
31 -537 -538 0
-31 537 -538 0
-31 -537 538 0
31 537 538 0
-46 538 0
50 539 0
48 539 0
295 539 0
534 539 0
-540 0
-31 539 -541 0
31 -539 -541 0
541 -539 -31 0
31 539 541 0
-47 -541 0
-32 542 -543 0
32 -542 -543 0
-32 -542 543 0
32 542 543 0
-44 -543 0
32 -544 -545 0
-32 544 -545 0
545 -32 -544 0
545 32 544 0
-45 545 0
-190 546 0
-191 546 0
-192 546 0
-542 546 0
-544 546 0
-547 546 0
548 0
32 -546 -549 0
-32 546 -549 0
-32 -546 549 0
32 546 549 0
-46 549 0
190 550 0
191 550 0
192 550 0
542 550 0
544 550 0
547 550 0
-551 0
-32 550 -552 0
32 -550 -552 0
552 -550 -32 0
32 550 552 0
-47 -552 0
-553 544 -554 0
553 -544 -554 0
-553 -544 554 0
553 544 554 0
-44 -554 0
553 -547 -555 0
-553 547 -555 0
555 -553 -547 0
555 553 547 0
-45 555 0
-190 556 0
-191 556 0
-192 556 0
-544 556 0
-547 556 0
190 191 192 544 547 -556 0
553 -556 -557 0
-553 556 -557 0
-553 -556 557 0
553 556 557 0
-46 557 0
190 558 0
191 558 0
192 558 0
544 558 0
547 558 0
-559 0
-553 558 -560 0
553 -558 -560 0
560 -558 -553 0
553 558 560 0
-47 -560 0
-561 547 -562 0
561 -547 -562 0
-561 -547 562 0
561 547 562 0
-44 -562 0
561 -191 -563 0
-561 191 -563 0
563 -561 -191 0
563 561 191 0
-45 563 0
-190 564 0
-191 564 0
-192 564 0
-547 564 0
190 191 192 547 -564 0
561 -564 -565 0
-561 564 -565 0
-561 -564 565 0
561 564 565 0
-46 565 0
190 566 0
191 566 0
192 566 0
547 566 0
-567 0
-561 566 -568 0
561 -566 -568 0
568 -566 -561 0
561 566 568 0
-47 -568 0
-33 569 -570 0
33 -569 -570 0
-33 -569 570 0
33 569 570 0
-44 -570 0
33 -571 -572 0
-33 571 -572 0
572 -33 -571 0
572 33 571 0
-45 572 0
-170 573 0
-173 573 0
-496 573 0
-569 573 0
-571 573 0
170 173 496 569 571 -573 0
33 -573 -574 0
-33 573 -574 0
-33 -573 574 0
33 573 574 0
-46 574 0
170 575 0
173 575 0
496 575 0
569 575 0
571 575 0
-576 0
-33 575 -577 0
33 -575 -577 0
577 -575 -33 0
33 575 577 0
-47 -577 0
-578 571 -579 0
578 -571 -579 0
-578 -571 579 0
578 571 579 0
-44 -579 0
578 -496 -580 0
-578 496 -580 0
580 -578 -496 0
580 578 496 0
-45 580 0
-170 581 0
-173 581 0
-496 581 0
-571 581 0
170 173 496 571 -581 0
578 -581 -582 0
-578 581 -582 0
-578 -581 582 0
578 581 582 0
-46 582 0
170 583 0
173 583 0
496 583 0
571 583 0
-584 0
-578 583 -585 0
578 -583 -585 0
585 -583 -578 0
578 583 585 0
-47 -585 0
-34 586 -587 0
34 -586 -587 0
-34 -586 587 0
34 586 587 0
-44 -587 0
34 -121 -588 0
-34 121 -588 0
588 -34 -121 0
588 34 121 0
-45 588 0
-120 589 0
-121 589 0
-122 589 0
-123 589 0
-586 589 0
120 121 122 123 586 -589 0
34 -589 -590 0
-34 589 -590 0
-34 -589 590 0
34 589 590 0
-46 590 0
120 591 0
121 591 0
122 591 0
123 591 0
586 591 0
-592 0
-34 591 -593 0
34 -591 -593 0
593 -591 -34 0
34 591 593 0
-47 -593 0
-35 594 -595 0
35 -594 -595 0
-35 -594 595 0
35 594 595 0
-44 -595 0
35 -596 -597 0
-35 596 -597 0
597 -35 -596 0
597 35 596 0
-45 597 0
-375 598 0
-376 598 0
-377 598 0
-378 598 0
-594 598 0
-596 598 0
599 0
35 -598 -600 0
-35 598 -600 0
-35 -598 600 0
35 598 600 0
-46 600 0
375 601 0
376 601 0
377 601 0
378 601 0
594 601 0
596 601 0
-602 0
-35 601 -603 0
35 -601 -603 0
603 -601 -35 0
35 601 603 0
-47 -603 0
-604 596 -605 0
604 -596 -605 0
-604 -596 605 0
604 596 605 0
-44 -605 0
604 -378 -606 0
-604 378 -606 0
606 -604 -378 0
606 604 378 0
-45 606 0
-375 607 0
-376 607 0
-377 607 0
-378 607 0
-596 607 0
375 376 377 378 596 -607 0
604 -607 -608 0
-604 607 -608 0
-604 -607 608 0
604 607 608 0
-46 608 0
375 609 0
376 609 0
377 609 0
378 609 0
596 609 0
-610 0
-604 609 -611 0
604 -609 -611 0
611 -609 -604 0
604 609 611 0
-47 -611 0
-36 612 -613 0
36 -612 -613 0
-36 -612 613 0
36 612 613 0
-44 -613 0
36 -290 -614 0
-36 290 -614 0
614 -36 -290 0
614 36 290 0
-45 614 0
-48 615 0
-50 615 0
-290 615 0
-292 615 0
-295 615 0
-612 615 0
48 50 290 292 295 612 -615 0
36 -615 -616 0
-36 615 -616 0
-36 -615 616 0
36 615 616 0
-46 616 0
50 617 0
48 617 0
290 617 0
292 617 0
295 617 0
612 617 0
-618 0
-36 617 -619 0
36 -617 -619 0
619 -617 -36 0
36 617 619 0
-47 -619 0
-37 620 -621 0
37 -620 -621 0
-37 -620 621 0
37 620 621 0
-44 -621 0
37 -622 -623 0
-37 622 -623 0
623 -37 -622 0
623 37 622 0
-45 623 0
-375 624 0
-376 624 0
-377 624 0
-378 624 0
-596 624 0
-620 624 0
-622 624 0
-625 624 0
626 0
37 -624 -627 0
-37 624 -627 0
-37 -624 627 0
37 624 627 0
-46 627 0
375 628 0
376 628 0
377 628 0
378 628 0
596 628 0
620 628 0
622 628 0
625 628 0
-629 0
-37 628 -630 0
37 -628 -630 0
630 -628 -37 0
37 628 630 0
-47 -630 0
-631 622 -632 0
631 -622 -632 0
-631 -622 632 0
631 622 632 0
-44 -632 0
631 -625 -633 0
-631 625 -633 0
633 -631 -625 0
633 631 625 0
-45 633 0
-375 634 0
-376 634 0
-377 634 0
-378 634 0
-596 634 0
-622 634 0
-625 634 0
635 0
631 -634 -636 0
-631 634 -636 0
-631 -634 636 0
631 634 636 0
-46 636 0
375 637 0
376 637 0
377 637 0
378 637 0
596 637 0
622 637 0
625 637 0
-638 0
-631 637 -639 0
631 -637 -639 0
639 -637 -631 0
631 637 639 0
-47 -639 0
-640 625 -641 0
640 -625 -641 0
-640 -625 641 0
640 625 641 0
-44 -641 0
640 -596 -642 0
-640 596 -642 0
642 -640 -596 0
642 640 596 0
-45 642 0
-375 643 0
-376 643 0
-377 643 0
-378 643 0
-596 643 0
-625 643 0
644 0
640 -643 -645 0
-640 643 -645 0
-640 -643 645 0
640 643 645 0
-46 645 0
375 646 0
376 646 0
377 646 0
378 646 0
596 646 0
625 646 0
-647 0
-640 646 -648 0
640 -646 -648 0
648 -646 -640 0
640 646 648 0
-47 -648 0
-38 649 -650 0
38 -649 -650 0
-38 -649 650 0
38 649 650 0
-44 -650 0
38 -377 -651 0
-38 377 -651 0
651 -38 -377 0
651 38 377 0
-45 651 0
-375 652 0
-376 652 0
-377 652 0
-378 652 0
-649 652 0
375 376 377 378 649 -652 0
38 -652 -653 0
-38 652 -653 0
-38 -652 653 0
38 652 653 0
-46 653 0
375 654 0
376 654 0
377 654 0
378 654 0
649 654 0
-655 0
-38 654 -656 0
38 -654 -656 0
656 -654 -38 0
38 654 656 0
-47 -656 0
-39 657 -658 0
39 -657 -658 0
-39 -657 658 0
39 657 658 0
-44 -658 0
39 -227 -659 0
-39 227 -659 0
659 -39 -227 0
659 39 227 0
-45 659 0
-48 660 0
-50 660 0
-227 660 0
-657 660 0
48 50 227 657 -660 0
39 -660 -661 0
-39 660 -661 0
-39 -660 661 0
39 660 661 0
-46 661 0
50 662 0
48 662 0
227 662 0
657 662 0
-663 0
-39 662 -664 0
39 -662 -664 0
664 -662 -39 0
39 662 664 0
-47 -664 0
-40 665 -666 0
40 -665 -666 0
-40 -665 666 0
40 665 666 0
-44 -666 0
40 -667 -668 0
-40 667 -668 0
668 -40 -667 0
668 40 667 0
-45 668 0
-168 669 0
-170 669 0
-173 669 0
-665 669 0
-667 669 0
168 170 173 665 667 -669 0
40 -669 -670 0
-40 669 -670 0
-40 -669 670 0
40 669 670 0
-46 670 0
168 671 0
170 671 0
173 671 0
665 671 0
667 671 0
-672 0
-40 671 -673 0
40 -671 -673 0
673 -671 -40 0
40 671 673 0
-47 -673 0
-674 667 -675 0
674 -667 -675 0
-674 -667 675 0
674 667 675 0
-44 -675 0
674 -168 -676 0
-674 168 -676 0
676 -674 -168 0
676 674 168 0
-45 676 0
-168 677 0
-170 677 0
-173 677 0
-667 677 0
168 170 173 667 -677 0
674 -677 -678 0
-674 677 -678 0
-674 -677 678 0
674 677 678 0
-46 678 0
168 679 0
170 679 0
173 679 0
667 679 0
-680 0
-674 679 -681 0
674 -679 -681 0
681 -679 -674 0
674 679 681 0
-47 -681 0
-41 682 -683 0
41 -682 -683 0
-41 -682 683 0
41 682 683 0
-44 -683 0
41 -544 -684 0
-41 544 -684 0
684 -41 -544 0
684 41 544 0
-45 684 0
-190 685 0
-191 685 0
-192 685 0
-544 685 0
-547 685 0
-682 685 0
686 0
41 -685 -687 0
-41 685 -687 0
-41 -685 687 0
41 685 687 0
-46 687 0
190 688 0
191 688 0
192 688 0
544 688 0
547 688 0
682 688 0
-689 0
-41 688 -690 0
41 -688 -690 0
690 -688 -41 0
41 688 690 0
-47 -690 0
-42 691 -692 0
42 -691 -692 0
-42 -691 692 0
42 691 692 0
-44 -692 0
42 -693 -694 0
-42 693 -694 0
694 -42 -693 0
694 42 693 0
-45 694 0
-373 695 0
-374 695 0
-375 695 0
-376 695 0
-377 695 0
-378 695 0
-691 695 0
-693 695 0
696 0
42 -695 -697 0
-42 695 -697 0
-42 -695 697 0
42 695 697 0
-46 697 0
373 698 0
374 698 0
375 698 0
376 698 0
377 698 0
378 698 0
691 698 0
693 698 0
-699 0
-42 698 -700 0
42 -698 -700 0
700 -698 -42 0
42 698 700 0
-47 -700 0
-701 693 -702 0
701 -693 -702 0
-701 -693 702 0
701 693 702 0
-44 -702 0
701 -373 -703 0
-701 373 -703 0
703 -701 -373 0
703 701 373 0
-45 703 0
-373 704 0
-374 704 0
-375 704 0
-376 704 0
-377 704 0
-378 704 0
-693 704 0
705 0
701 -704 -706 0
-701 704 -706 0
-701 -704 706 0
701 704 706 0
-46 706 0
373 707 0
374 707 0
375 707 0
376 707 0
377 707 0
378 707 0
693 707 0
-708 0
-701 707 -709 0
701 -707 -709 0
709 -707 -701 0
701 707 709 0
-47 -709 0
-43 710 -711 0
43 -710 -711 0
-43 -710 711 0
43 710 711 0
-44 -711 0
43 -712 -713 0
-43 712 -713 0
713 -43 -712 0
713 43 712 0
-45 713 0
-374 714 0
-375 714 0
-376 714 0
-377 714 0
-378 714 0
-710 714 0
-712 714 0
-715 714 0
716 0
43 -714 -717 0
-43 714 -717 0
-43 -714 717 0
43 714 717 0
-46 717 0
374 718 0
375 718 0
376 718 0
377 718 0
378 718 0
710 718 0
712 718 0
715 718 0
-719 0
-43 718 -720 0
43 -718 -720 0
720 -718 -43 0
43 718 720 0
-47 -720 0
-721 712 -722 0
721 -712 -722 0
-721 -712 722 0
721 712 722 0
-44 -722 0
721 -715 -723 0
-721 715 -723 0
723 -721 -715 0
723 721 715 0
-45 723 0
-374 724 0
-375 724 0
-376 724 0
-377 724 0
-378 724 0
-712 724 0
-715 724 0
725 0
721 -724 -726 0
-721 724 -726 0
-721 -724 726 0
721 724 726 0
-46 726 0
374 727 0
375 727 0
376 727 0
377 727 0
378 727 0
712 727 0
715 727 0
-728 0
-721 727 -729 0
721 -727 -729 0
729 -727 -721 0
721 727 729 0
-47 -729 0
-730 715 -731 0
730 -715 -731 0
-730 -715 731 0
730 715 731 0
-44 -731 0
730 -374 -732 0
-730 374 -732 0
732 -730 -374 0
732 730 374 0
-45 732 0
-374 733 0
-375 733 0
-376 733 0
-377 733 0
-378 733 0
-715 733 0
734 0
730 -733 -735 0
-730 733 -735 0
-730 -733 735 0
730 733 735 0
-46 735 0
374 736 0
375 736 0
376 736 0
377 736 0
378 736 0
715 736 0
-737 0
-730 736 -738 0
730 -736 -738 0
738 -736 -730 0
730 736 738 0
-47 -738 0
48 -739 0
-739 -50 0
-739 -61 0
-739 -63 0
66 -739 0
-739 -67 0
68 -739 0
-739 -69 0
-739 -70 0
114 -739 0
116 -739 0
-739 -119 0
120 -739 0
121 -739 0
-739 -122 0
123 -739 0
168 -739 0
170 -739 0
-739 -173 0
185 -739 0
-739 -187 0
-739 -190 0
-739 -191 0
192 -739 0
-739 -221 0
-739 -223 0
-739 -226 0
227 -739 0
-739 -253 0
-739 -255 0
-739 -258 0
259 -739 0
290 -739 0
-739 -292 0
-739 -295 0
314 -739 0
-739 -316 0
319 -739 0
332 -739 0
334 -739 0
350 -739 0
-739 -352 0
-739 -368 0
-739 -370 0
-739 -373 0
374 -739 0
375 -739 0
376 -739 0
-739 -377 0
-739 -378 0
433 -739 0
435 -739 0
-739 -438 0
-739 -439 0
440 -739 0
441 -739 0
473 -739 0
475 -739 0
491 -739 0
-739 -493 0
-739 -496 0
515 -739 0
-739 -517 0
534 -739 0
542 -739 0
-739 -544 0
547 -739 0
-739 -569 0
571 -739 0
-739 -586 0
-739 -594 0
596 -739 0
612 -739 0
-739 -620 0
-739 -622 0
625 -739 0
-739 -649 0
657 -739 0
-739 -665 0
-739 -667 0
-739 -682 0
-739 -691 0
693 -739 0
-739 -710 0
-739 -712 0
715 -739 0
739 0
-740 0
-741 0
-742 0
-743 0
-744 0
-745 0
-746 0
-747 0
